(set-option :produce-models true)
(set-logic QF_UF)
(declare-fun p2() Bool)
(declare-fun p4() Bool)
(declare-fun p0() Bool)
(declare-fun p3() Bool)
(declare-fun p6() Bool)
(declare-fun p5() Bool)
(declare-fun p7() Bool)
(declare-fun p1() Bool)
(declare-fun p8() Bool)
(declare-fun p9() Bool)
(assert
(and (or p2 p4 (not p0)) (or (not p3) p0 p6) (or (not p5) p7 (not p2)) (or (not p5) p1 p4) (or (not p2) p0 p1) (or p5 (not p2) (not p4)) (or p5 (not p7) (not p8)) (or p7 (not p3) p2) (or p2 p7 p8) (or p2 p4 (not p2)) (or p7 (not p4) p2) (or (not p0) (not p9) p5) (or p0 p1 p9) (or (not p3) p3 p4) (or (not p3) (not p4) p7) (or p5 (not p2) p9) (or (not p3) p4 (not p7)) (or p7 (not p9) p5) (or (not p6) (not p9) p8) (or (not p9) p8 p3) (or p6 p5 p4) (or (not p1) (not p7) (not p3)) (or (not p3) p0 p3) (or p5 (not p2) p9) (or (not p1) p3 (not p7)) (or p7 p8 (not p0)) (or (not p6) p2 (not p5)) (or (not p2) (not p5) (not p1)) (or (not p2) (not p9) p4) (or p8 p8 p2) (or (not p2) p8 (not p9)) (or (not p9) (not p1) (not p2)) (or p1 (not p0) (not p1)) (or p2 p9 p1) (or p0 p0 (not p5)) (or p5 p2 (not p0)) (or (not p2) p6 (not p0)) (or p7 p2 p3) (or p8 (not p4) p1) (or (not p0) (not p6) (not p9)) (or (not p8) (not p4) (not p1)) (or p5 p1 p1) (or (not p5) p7 (not p7)) (or (not p6) p6 p4) (or p0 (not p3) p0) (or (not p4) (not p4) (not p3)) (or p5 p1 (not p2)) (or p3 (not p1) p9) (or (not p5) p1 (not p2)))
)
(check-sat)
(get-model)
